WARNING: for repeatability, setting FPU to use double precision
============================[ Problem Statistics ]=============================
|                                                                             |
|  Number of variables:           100                                         |
|  Number of clauses:             449                                         |
|  Parse time:                   0.00 s                                       |
|  Eliminated clauses:           0.00 Mb                                      |
|  Simplification time:          0.00 s                                       |
|                                                                             |
============================[ Search Statistics ]==============================
| Conflicts |          ORIGINAL         |          LEARNT          | Progress |
|           |    Vars  Clauses Literals |    Limit  Clauses Lit/Cl |          |
===============================================================================
|       100 |      99      449     1351 |      164      100      6 |  0.010 % |
|       250 |      99      449     1351 |      181      161      7 |  0.010 % |
===============================================================================
restarts              : 3
conflicts             : 399            (100936 /sec)
decisions             : 495            (0.00 % random) (125221 /sec)
propagations          : 9143           (2312927 /sec)
conflict literals     : 2457           (21.10 % deleted)
Memory used           : 13.00 MB
CPU time              : 0.003953 s

SATISFIABLE
